data;
param n:=50;
param w:=1 55 2 -154 3 -259 4 166 5 47 6 65 7 3 8 -259 9 11 10 -159 11 -208 12 -14 13 -225 14 45 15 206 16 203 17 -58 18 -232 19 43 20 8 21 70 22 227 23 -117 24 38 25 116 26 118 27 63 28 -159 29 -168 30 -7 31 61 32 199 33 96 34 87 35 224 36 -94 37 -151 38 -92 39 -140 40 -88 41 91 42 30 43 149 44 204 45 -164 46 -39 47 440 48 -234 49 -27 50 -17;
